
Gurobi 8.1.1 (win64) logging started 11/23/19 13:15:25

Changed value of parameter LogFile to logs/full/max/full-07-30-1.log
   Prev: gurobi.log  Default: 
Changed value of parameter LogToConsole to 0
   Prev: 1  Min: 0  Max: 1  Default: 1
Changed value of parameter TimeLimit to 3600.0
   Prev: 1e+100  Min: 0.0  Max: 1e+100  Default: 1e+100
Optimize a model with 4641 rows, 2220 columns and 17850 nonzeros
Variable types: 0 continuous, 2220 integer (2205 binary)
Coefficient statistics:
  Matrix range     [1e+00, 1e+03]
  Objective range  [1e+00, 1e+00]
  Bounds range     [1e+00, 1e+00]
  RHS range        [1e+00, 1e+03]
Found heuristic solution: objective 1.0000000
Presolve time: 0.04s
Presolved: 4641 rows, 2220 columns, 17850 nonzeros
Variable types: 0 continuous, 2220 integer (2205 binary)

Root relaxation: objective 2.100000e+01, 330 iterations, 0.03 seconds

    Nodes    |    Current Node    |     Objective Bounds      |     Work
 Expl Unexpl |  Obj  Depth IntInf | Incumbent    BestBd   Gap | It/Node Time

     0     0   21.00000    0    2    1.00000   21.00000  2000%     -    0s
H    0     0                      20.0000000   21.00000  5.00%     -    0s
H    0     0                      21.0000000   21.00000  0.00%     -    0s

Explored 1 nodes (1216 simplex iterations) in 0.36 seconds
Thread count was 4 (of 4 available processors)

Solution count 3: 21 20 1 

Optimal solution found (tolerance 1.00e-04)
Best objective 2.100000000000e+01, best bound 2.100000000000e+01, gap 0.0000%

Gurobi 8.1.1 (win64) logging started 11/23/19 13:15:26

Changed value of parameter LogFile to logs/full/max/full-07-30-1.log
   Prev: gurobi.log  Default: 
Changed value of parameter LogToConsole to 0
   Prev: 1  Min: 0  Max: 1  Default: 1
Changed value of parameter TimeLimit to 3600.0
   Prev: 1e+100  Min: 0.0  Max: 1e+100  Default: 1e+100
Optimize a model with 2441 rows, 1166 columns and 9350 nonzeros
Variable types: 0 continuous, 1166 integer (1155 binary)
Coefficient statistics:
  Matrix range     [1e+00, 1e+03]
  Objective range  [1e+00, 1e+00]
  Bounds range     [1e+00, 1e+00]
  RHS range        [1e+00, 1e+03]
Found heuristic solution: objective -0.0000000
Presolve time: 0.02s
Presolved: 2441 rows, 1166 columns, 9350 nonzeros
Variable types: 0 continuous, 1166 integer (1155 binary)

Root relaxation: objective 2.100000e+01, 218 iterations, 0.01 seconds

    Nodes    |    Current Node    |     Objective Bounds      |     Work
 Expl Unexpl |  Obj  Depth IntInf | Incumbent    BestBd   Gap | It/Node Time

     0     0   21.00000    0    6   -0.00000   21.00000      -     -    0s
H    0     0                      18.0000000   21.00000  16.7%     -    0s
H    0     0                      19.0000000   21.00000  10.5%     -    0s
     0     0   21.00000    0   38   19.00000   21.00000  10.5%     -    0s
     0     0   21.00000    0   40   19.00000   21.00000  10.5%     -    0s
     0     0   21.00000    0    6   19.00000   21.00000  10.5%     -    0s
H    0     0                      21.0000000   21.00000  0.00%     -    0s
     0     0   21.00000    0    4   21.00000   21.00000  0.00%     -    0s

Cutting planes:
  MIR: 1

Explored 1 nodes (1361 simplex iterations) in 0.59 seconds
Thread count was 4 (of 4 available processors)

Solution count 4: 21 19 18 -0 

Optimal solution found (tolerance 1.00e-04)
Best objective 2.100000000000e+01, best bound 2.100000000000e+01, gap 0.0000%

Gurobi 8.1.1 (win64) logging started 11/23/19 13:15:26

Changed value of parameter LogFile to logs/full/max/full-07-30-1.log
   Prev: gurobi.log  Default: 
Changed value of parameter LogToConsole to 0
   Prev: 1  Min: 0  Max: 1  Default: 1
Changed value of parameter TimeLimit to 3600.0
   Prev: 1e+100  Min: 0.0  Max: 1e+100  Default: 1e+100
Optimize a model with 1605 rows, 765 columns and 6120 nonzeros
Variable types: 0 continuous, 765 integer (756 binary)
Coefficient statistics:
  Matrix range     [1e+00, 1e+03]
  Objective range  [1e+00, 1e+00]
  Bounds range     [1e+00, 1e+00]
  RHS range        [1e+00, 1e+03]
Found heuristic solution: objective -0.0000000
Presolve time: 0.01s
Presolved: 1605 rows, 765 columns, 6120 nonzeros
Variable types: 0 continuous, 765 integer (756 binary)

Root relaxation: objective 2.100000e+01, 205 iterations, 0.01 seconds

    Nodes    |    Current Node    |     Objective Bounds      |     Work
 Expl Unexpl |  Obj  Depth IntInf | Incumbent    BestBd   Gap | It/Node Time

     0     0   21.00000    0   10   -0.00000   21.00000      -     -    0s
H    0     0                      17.0000000   21.00000  23.5%     -    0s
H    0     0                      19.0000000   21.00000  10.5%     -    0s
     0     0   21.00000    0   57   19.00000   21.00000  10.5%     -    0s
     0     0   21.00000    0   57   19.00000   21.00000  10.5%     -    0s
     0     0   21.00000    0   16   19.00000   21.00000  10.5%     -    0s
     0     0   21.00000    0   14   19.00000   21.00000  10.5%     -    0s
     0     0   21.00000    0   12   19.00000   21.00000  10.5%     -    0s
     0     0   21.00000    0   12   19.00000   21.00000  10.5%     -    0s
     0     0   21.00000    0   12   19.00000   21.00000  10.5%     -    0s
     0     2   21.00000    0    4   19.00000   21.00000  10.5%     -    0s
H  707    89                      20.0000000   21.00000  5.00%   9.1    1s
  2470   945   21.00000  132   43   20.00000   21.00000  5.00%  28.4    5s
  7252  2350   21.00000  152   45   20.00000   21.00000  5.00%  28.5   10s
 12918  4093   21.00000  154   26   20.00000   21.00000  5.00%  26.2   15s
 18872  4408 infeasible  162        20.00000   21.00000  5.00%  24.6   20s
 20989  4448 infeasible  150        20.00000   21.00000  5.00%  23.8   31s
 25741  4180 infeasible  140        20.00000   21.00000  5.00%  22.5   35s
 31373  4335 infeasible  121        20.00000   21.00000  5.00%  21.5   40s
 38087  4362 infeasible  132        20.00000   21.00000  5.00%  21.0   45s
 45375  4545 infeasible  103        20.00000   21.00000  5.00%  20.0   50s
 53220  4388   21.00000  149   32   20.00000   21.00000  5.00%  19.2   55s
 61263  5447   21.00000   82   22   20.00000   21.00000  5.00%  18.7   60s
 68374  6989 infeasible  177        20.00000   21.00000  5.00%  18.5   65s
 76458  6945   21.00000   90   40   20.00000   21.00000  5.00%  18.0   70s
 84224  7231   21.00000  147   22   20.00000   21.00000  5.00%  17.7   75s
 91955  7003 infeasible   95        20.00000   21.00000  5.00%  17.4   80s
 99661  7395   21.00000  126   30   20.00000   21.00000  5.00%  17.1   85s
 107332  7239 infeasible  120        20.00000   21.00000  5.00%  16.9   90s
 114240  7308 infeasible  147        20.00000   21.00000  5.00%  16.8   95s
 122953  7327 infeasible  145        20.00000   21.00000  5.00%  16.5  100s
 131099  7463 infeasible  123        20.00000   21.00000  5.00%  16.4  105s
 139462  7348 infeasible  140        20.00000   21.00000  5.00%  16.2  110s
 145626  7808 infeasible  156        20.00000   21.00000  5.00%  16.4  115s
 153781  7786 infeasible  116        20.00000   21.00000  5.00%  16.2  120s
 162230  7811 infeasible   69        20.00000   21.00000  5.00%  16.0  125s
 168708  8136   21.00000   92   52   20.00000   21.00000  5.00%  16.3  130s
 175420  8585 infeasible   90        20.00000   21.00000  5.00%  16.5  135s
 183350 10588 infeasible  120        20.00000   21.00000  5.00%  16.5  140s
 190214 12386 infeasible   96        20.00000   21.00000  5.00%  16.5  145s
 196008 13474 infeasible   94        20.00000   21.00000  5.00%  16.8  150s
 201872 13681 infeasible  112        20.00000   21.00000  5.00%  16.8  155s
 208698 14318   21.00000  129   34   20.00000   21.00000  5.00%  16.9  160s
 216231 14088 infeasible  153        20.00000   21.00000  5.00%  16.8  165s
 224474 14256   21.00000  156   24   20.00000   21.00000  5.00%  16.7  170s
 232839 14104 infeasible  123        20.00000   21.00000  5.00%  16.5  175s
 241345 14201 infeasible  138        20.00000   21.00000  5.00%  16.4  180s
 249377 14166   21.00000  112   28   20.00000   21.00000  5.00%  16.4  185s
 257025 14322   21.00000  102   30   20.00000   21.00000  5.00%  16.3  190s
 266100 14877 infeasible  111        20.00000   21.00000  5.00%  16.2  195s
 275456 14510 infeasible   88        20.00000   21.00000  5.00%  16.0  200s
 283447 14788 infeasible   95        20.00000   21.00000  5.00%  15.9  205s
 291369 14601 infeasible  164        20.00000   21.00000  5.00%  15.9  210s
 298583 14722 infeasible  112        20.00000   21.00000  5.00%  15.9  215s
 306214 14724 infeasible  112        20.00000   21.00000  5.00%  15.9  220s
 314418 15515 infeasible  140        20.00000   21.00000  5.00%  15.9  225s
 321292 15251 infeasible   76        20.00000   21.00000  5.00%  15.9  230s
 328416 15169 infeasible  122        20.00000   21.00000  5.00%  15.9  235s
 336220 15798 infeasible  102        20.00000   21.00000  5.00%  15.9  240s
 344743 16069   21.00000  152   23   20.00000   21.00000  5.00%  15.9  245s
 352513 15848 infeasible  147        20.00000   21.00000  5.00%  15.9  250s
 360686 16120 infeasible   86        20.00000   21.00000  5.00%  15.8  255s
 369962 16359 infeasible   92        20.00000   21.00000  5.00%  15.7  260s
 378189 16332 infeasible   99        20.00000   21.00000  5.00%  15.7  265s
 387302 16127 infeasible   98        20.00000   21.00000  5.00%  15.6  270s
 394476 16234 infeasible  113        20.00000   21.00000  5.00%  15.6  275s
 401898 16229   21.00000  112   33   20.00000   21.00000  5.00%  15.6  280s
 408620 16038 infeasible   98        20.00000   21.00000  5.00%  15.7  285s
 415056 16402   21.00000  160   35   20.00000   21.00000  5.00%  15.8  290s
 421924 16141 infeasible  176        20.00000   21.00000  5.00%  15.8  295s
 428611 16376 infeasible  106        20.00000   21.00000  5.00%  15.8  300s
 435617 16703 infeasible  174        20.00000   21.00000  5.00%  15.8  305s
 443385 17525 infeasible  173        20.00000   21.00000  5.00%  15.8  310s
 450609 18519   21.00000  112   34   20.00000   21.00000  5.00%  15.8  315s
 457017 20337   21.00000   32   18   20.00000   21.00000  5.00%  15.9  320s
 463871 20155 infeasible  104        20.00000   21.00000  5.00%  15.9  325s
 470276 20846   21.00000  144   30   20.00000   21.00000  5.00%  16.0  330s
 475588 23153 infeasible   70        20.00000   21.00000  5.00%  16.1  335s
 481722 24993 infeasible   91        20.00000   21.00000  5.00%  16.2  340s
 488230 24930 infeasible  176        20.00000   21.00000  5.00%  16.2  345s
 493562 24763 infeasible  173        20.00000   21.00000  5.00%  16.3  350s
 500027 25011   21.00000  110   31   20.00000   21.00000  5.00%  16.3  355s
 508214 25022 infeasible  173        20.00000   21.00000  5.00%  16.3  360s
 517195 25032 infeasible  136        20.00000   21.00000  5.00%  16.2  365s
 525756 25461 infeasible  122        20.00000   21.00000  5.00%  16.2  370s
 534444 25517   21.00000  148   36   20.00000   21.00000  5.00%  16.1  375s
 543610 25236 infeasible  192        20.00000   21.00000  5.00%  16.1  380s
 552666 25435   21.00000  145   30   20.00000   21.00000  5.00%  16.0  385s
 560853 25213 infeasible  136        20.00000   21.00000  5.00%  16.0  390s
 569744 25099 infeasible  153        20.00000   21.00000  5.00%  15.9  395s
 578221 25092 infeasible  122        20.00000   21.00000  5.00%  15.9  400s
 585595 25629 infeasible  148        20.00000   21.00000  5.00%  15.9  405s
 593686 25616   21.00000   97   50   20.00000   21.00000  5.00%  15.9  410s
 600659 25699 infeasible  122        20.00000   21.00000  5.00%  15.9  415s
 607517 25690 infeasible  108        20.00000   21.00000  5.00%  16.0  420s
 614089 25695 infeasible  115        20.00000   21.00000  5.00%  16.0  425s
 621593 25678 infeasible  172        20.00000   21.00000  5.00%  16.0  430s
 630473 25742 infeasible  145        20.00000   21.00000  5.00%  16.0  435s
 639480 26007 infeasible  108        20.00000   21.00000  5.00%  15.9  440s
 648604 26235   21.00000  145   29   20.00000   21.00000  5.00%  15.9  445s
 657479 26015 infeasible  131        20.00000   21.00000  5.00%  15.8  450s
 664512 26650 infeasible  148        20.00000   21.00000  5.00%  15.9  455s
 675678 26499 infeasible  201        20.00000   21.00000  5.00%  15.7  460s
 684392 26540 infeasible  153        20.00000   21.00000  5.00%  15.7  465s
 693599 26838   21.00000  192   30   20.00000   21.00000  5.00%  15.7  470s
 703011 27269 infeasible  195        20.00000   21.00000  5.00%  15.6  475s
 712281 27014 infeasible  207        20.00000   21.00000  5.00%  15.5  480s
 722535 27270 infeasible  200        20.00000   21.00000  5.00%  15.5  485s
 734115 27192 infeasible  173        20.00000   21.00000  5.00%  15.3  490s
 745909 27517 infeasible  191        20.00000   21.00000  5.00%  15.2  495s
 755851 27417 infeasible  206        20.00000   21.00000  5.00%  15.2  500s
 764863 27664 infeasible  213        20.00000   21.00000  5.00%  15.1  505s
 774814 27781 infeasible  224        20.00000   21.00000  5.00%  15.1  510s
 782951 27773 infeasible  223        20.00000   21.00000  5.00%  15.1  515s
 791727 27477 infeasible  223        20.00000   21.00000  5.00%  15.0  520s
 800085 27701 infeasible  194        20.00000   21.00000  5.00%  15.0  525s
 810388 27765 infeasible  222        20.00000   21.00000  5.00%  15.0  530s
 821663 27788 infeasible  198        20.00000   21.00000  5.00%  14.9  535s
H823775     3                      21.0000000   21.00000  0.00%  14.9  536s

Cutting planes:
  Gomory: 6
  MIR: 5
  Flow cover: 7
  Inf proof: 2
  Zero half: 2
  Mod-K: 4

Explored 823871 nodes (12259441 simplex iterations) in 536.10 seconds
Thread count was 4 (of 4 available processors)

Solution count 5: 21 20 19 ... -0

Optimal solution found (tolerance 1.00e-04)
Best objective 2.100000000000e+01, best bound 2.100000000000e+01, gap 0.0000%

Gurobi 8.1.1 (win64) logging started 11/23/19 13:24:23

Changed value of parameter LogFile to logs/full/max/full-07-30-1.log
   Prev: gurobi.log  Default: 
Changed value of parameter LogToConsole to 0
   Prev: 1  Min: 0  Max: 1  Default: 1
Changed value of parameter TimeLimit to 3600.0
   Prev: 1e+100  Min: 0.0  Max: 1e+100  Default: 1e+100
Optimize a model with 1253 rows, 596 columns and 4760 nonzeros
Variable types: 0 continuous, 596 integer (588 binary)
Coefficient statistics:
  Matrix range     [1e+00, 1e+03]
  Objective range  [1e+00, 1e+00]
  Bounds range     [1e+00, 1e+00]
  RHS range        [1e+00, 1e+03]
Found heuristic solution: objective -0.0000000
Presolve time: 0.01s
Presolved: 1253 rows, 596 columns, 4760 nonzeros
Variable types: 0 continuous, 596 integer (588 binary)

Root relaxation: objective 2.100000e+01, 228 iterations, 0.01 seconds

    Nodes    |    Current Node    |     Objective Bounds      |     Work
 Expl Unexpl |  Obj  Depth IntInf | Incumbent    BestBd   Gap | It/Node Time

     0     0   21.00000    0   20   -0.00000   21.00000      -     -    0s
H    0     0                      12.0000000   21.00000  75.0%     -    0s
     0     0   21.00000    0   31   12.00000   21.00000  75.0%     -    0s
H    0     0                      14.0000000   21.00000  50.0%     -    0s
     0     0   21.00000    0   31   14.00000   21.00000  50.0%     -    0s
     0     0   21.00000    0   18   14.00000   21.00000  50.0%     -    0s
     0     0   21.00000    0    6   14.00000   21.00000  50.0%     -    0s
H    0     0                      18.0000000   21.00000  16.7%     -    0s
     0     0   21.00000    0    4   18.00000   21.00000  16.7%     -    0s
H    0     0                      19.0000000   21.00000  10.5%     -    0s
     0     0   21.00000    0    6   19.00000   21.00000  10.5%     -    0s
     0     0   21.00000    0    6   19.00000   21.00000  10.5%     -    0s
     0     0   21.00000    0    9   19.00000   21.00000  10.5%     -    0s
     0     0   21.00000    0    9   19.00000   21.00000  10.5%     -    0s
     0     2   21.00000    0    9   19.00000   21.00000  10.5%     -    0s
H 2255   357                      21.0000000   21.00000  0.00%  11.2    2s

Cutting planes:
  Gomory: 1
  Flow cover: 1
  Zero half: 1

Explored 2255 nodes (31171 simplex iterations) in 2.62 seconds
Thread count was 4 (of 4 available processors)

Solution count 6: 21 19 18 ... -0

Optimal solution found (tolerance 1.00e-04)
Best objective 2.100000000000e+01, best bound 2.100000000000e+01, gap 0.0000%
